p cnf 62 124
-1 8 10 21 42 -47 0 
-2 17 43 -47 0 
-3 19 44 -47 0 
-4 15 18 45 -47 0 
-5 20 46 -47 0 
-1 8 10 21 46 -47 0 
-6 47 0 
-5 20 43 -47 0 
-2 17 48 -47 0 
-5 20 48 -47 0 
-1 8 10 21 49 -47 0 
-2 17 50 -47 0 
-7 9 12 23 39 46 -47 0 
-7 9 12 23 39 43 -47 0 
-8 1 10 21 51 -33 -34 -37 -47 0 
-1 8 10 21 48 -47 0 
-9 7 12 23 39 52 -4 -15 -18 -47 0 
-1 8 10 21 43 -47 0 
-10 1 8 21 50 -47 0 
-11 53 -47 0 
-12 7 9 23 39 51 -33 -34 -37 -47 0 
-8 1 10 21 52 -4 -15 -18 -47 0 
-7 9 12 23 39 -13 26 36 43 -47 0 
-12 7 9 23 39 54 -47 0 
-2 17 -14 32 50 -47 0 
-3 19 50 -47 0 
-15 4 18 54 -47 0 
-8 1 10 21 55 -47 0 
-16 -17 2 56 -47 0 
-18 4 15 50 -47 0 
-7 9 12 23 39 57 -47 0 
-2 17 45 -47 0 
-7 9 12 23 39 58 -47 0 
-7 9 12 23 39 -19 3 43 -47 0 
-20 5 43 -47 0 
-8 1 10 21 47 0 
-21 1 8 10 47 0 
-12 7 9 23 39 47 0 
-22 47 0 
-23 7 9 12 39 47 0 
-24 47 0 
-25 28 29 47 0 
-26 13 36 57 -47 0 
-26 13 36 58 -47 0 
-27 47 0 
-28 25 29 47 0 
-29 25 28 47 0 
-30 47 0 
-31 40 -7 9 12 23 39 43 -47 0 
-7 9 12 23 39 -32 14 46 -47 0 
-3 19 -5 20 43 -47 0 
-33 34 37 59 -47 0 
-34 33 37 49 -47 0 
-35 -20 5 53 -47 0 
-34 33 37 46 -47 0 
-34 33 37 48 -47 0 
-7 9 12 23 39 44 -47 0 
-34 33 37 43 -47 0 
-36 13 26 -37 33 34 60 -47 0 
-38 -39 7 9 12 23 50 -47 0 
-40 31 61 -47 0 
-41 62 -47 0 
-17 35 56 0 
12 -22 60 0 
-50 56 -59 0 
-26 -40 -61 0 
11 -12 19 0 
15 -38 -57 0 
21 -52 -53 0 
-17 -43 54 0 
25 -40 -43 0 
-18 -36 61 0 
6 7 53 0 
-4 -27 28 0 
34 -59 -62 0 
-4 -6 -33 0 
2 27 -30 0 
-19 -41 -61 0 
-47 -48 -62 0 
15 -27 -55 0 
-23 -50 57 0 
-16 -31 -61 0 
-28 -36 -52 0 
22 36 61 0 
-14 -18 50 0 
17 22 -33 0 
37 38 -40 0 
-3 28 -45 0 
-10 -21 -50 0 
18 43 -45 0 
-1 31 53 0 
-19 -29 45 0 
18 59 60 0 
5 48 -56 0 
13 -39 49 0 
-22 25 62 0 
3 -24 28 0 
-36 -49 -57 0 
10 11 -34 0 
2 27 -38 0 
31 50 51 0 
-9 -13 53 0 
13 14 -27 0 
6 -44 -50 0 
4 -22 37 0 
1 32 -47 0 
25 -35 -60 0 
25 61 62 0 
-1 -5 6 0 
-8 21 41 0 
-28 44 -52 0 
2 10 22 0 
14 -40 -50 0 
13 23 -44 0 
11 -49 -61 0 
-2 -6 -40 0 
-4 -26 49 0 
15 -44 53 0 
-23 25 -31 0 
-1 -3 -18 0 
8 13 35 0 
35 56 -60 0 
10 18 -31 0 
1 9 42 0 
